NAME: bb19.tsp
TYPE: TSP
COMMENT: 
DIMENSION: 19
EDGE_WEIGHT_TYPE : EUC_2D
NODE_COORD_SECTION
1 5 29
2 4 16
3 4 14
4 11 4
5 12 14
6 15 11
7 18 11
8 22 6
9 28 12
10 19 18
11 24 21
12 37 18
13 7 28
14 20 30
15 12 23
16 8 15
17 23 2
18 17 10
19 7 20
EOF
